# Solution for model GasLib-40
# Objective value = 1.3787200576883627e+01
loadshed[innode_1] 0
loadshed[innode_2] 0
loadshed[innode_3] 0
loadshed[innode_4] 0
loadshed[innode_5] 0
loadshed[innode_6] 0
loadshed[innode_7] 0
loadshed[innode_8] 0
loadshed[source_1] -0.236421316436062
loadshed[source_2] 1.3421593061260306e-01
loadshed[source_3] 1.8941631853024254e-01
loadshed[sink_1] 0
loadshed[sink_2] 0
loadshed[sink_3] 0
loadshed[sink_4] 0
loadshed[sink_5] 0
loadshed[sink_6] 0
loadshed[sink_7] 0
loadshed[sink_8] 0
loadshed[sink_9] 0
loadshed[sink_10] 0
loadshed[sink_11] 0
loadshed[sink_12] 8.4303901616613253e-01
loadshed[sink_13] 0
loadshed[sink_14] 0
loadshed[sink_15] 0
loadshed[sink_16] 0
loadshed[sink_17] 0
loadshed[sink_18] 0
loadshed[sink_19] 0
loadshed[sink_20] 0
loadshed[sink_21] 0
loadshed[sink_22] 0
loadshed[sink_23] 0
loadshed[sink_24] 0
loadshed[sink_25] 0
loadshed[sink_26] 0
loadshed[sink_27] 0
loadshed[sink_28] 0
loadshed[sink_29] 0
flow[source_1,sink_3] 1.9546618936574271e+02
flow[innode_1,sink_16] 1.6354166666666970e+01
flow[innode_6,sink_13] -1.3666232699020227e+01
flow[sink_13,sink_14] -3.0020399365686895e+01
flow[sink_14,sink_10] -4.6374566032353563e+01
flow[sink_25,sink_26] 2.3152529942311983e+02
flow[sink_26,sink_9] 1.3071524832783811e+02
flow[sink_9,sink_18] 1.1436108166117144e+02
flow[sink_26,sink_4] 8.4455884428615150e+01
flow[sink_4,sink_20] 1.6354166666668277e+01
flow[sink_18,sink_6] 9.8006914994504768e+01
flow[sink_25,innode_8] -1.6275785603240635e+02
flow[sink_6,sink_7] 4.8944414994504314e+01
flow[sink_6,sink_22] 3.2708333333333641e+01
flow[sink_7,sink_24] 3.5275299423116380e+01
flow[sink_22,sink_1] 1.6354166666666970e+01
flow[sink_24,sink_21] 1.8921132756449708e+01
flow[sink_21,sink_12] 2.5669660897830409e+00
flow[sink_7,sink_5] -2.6850510952784958e+00
flow[sink_5,sink_17] -1.9039217761945110e+01
flow[sink_17,sink_4] -5.1747551095280414e+01
flow[sink_17,sink_8] 1.6354166666668334e+01
flow[sink_3,sink_23] 16.3541666666697
flow[sink_8,sink_20] 0
flow[sink_25,sink_20] 0
flow[sink_25,sink_15] -7.1455377358360522e+01
flow[sink_15,sink_29] 0
flow[sink_29,sink_28] 1.6354166666667879e+01
flow[sink_29,sink_2] 1.0416371069169386e+02
flow[sink_2,sink_15] 87.8095440250272
flow[sink_29,innode_7] -1.3687204402502840e+02
flow[innode_4,sink_19] 5.0046050096691076e+01
flow[sink_19,innode_3] 4.6572885384152009e+01
flow[innode_4,innode_5] 7.8099349268996619e+01
flow[sink_27,innode_5] -7.8099349268996619e+01
flow[sink_27,sink_19] 6.1745182602329947e+01
flow[sink_10,sink_11] 3.2708333333333641e+01
flow[sink_10,innode_2] -4.8864180648201859e+01
flow[sink_10,innode_3] -4.6572885384152009e+01
flow[innode_6,sink_25] 1.3666232699020227e+01
flow[sink_11,innode_1] 1.6354166666666970e+01
flow[sink_19,innode_2] 4.8864180648201859e+01
flow[source_3,innode_4] 1.2814539936568769e+02
flow[source_2,innode_7] 1.3687204402502840e+02
flow[sink_3,innode_8] 1.6275785603240635e+02
pressure[innode_1] 76.2513819219838
pressure[innode_2] 78.9857569925206
pressure[innode_3] 7.8882626611644554e+01
pressure[innode_4] 81.01325
pressure[innode_5] 8.0959529149381339e+01
pressure[innode_6] 7.4080567654050824e+01
pressure[innode_7] 81.01325
pressure[innode_8] 8.0359881199741181e+01
pressure[source_1] 81.01325
pressure[source_2] 81.01325
pressure[source_3] 81.01325
pressure[sink_1] 4.1094652968938817e+01
pressure[sink_2] 7.4713874670248686e+01
pressure[sink_3] 8.0359881199741181e+01
pressure[sink_4] 4.7036437055107761e+01
pressure[sink_5] 4.3640532180675208e+01
pressure[sink_6] 4.3195730579326188e+01
pressure[sink_7] 4.2523840427279460e+01
pressure[sink_8] 4.4441731089107776e+01
pressure[sink_9] 4.9950731803758423e+01
pressure[sink_10] 7.6403083229587352e+01
pressure[sink_11] 76.2513819219838
pressure[sink_12] 1.01325
pressure[sink_13] 7.4155907311080881e+01
pressure[sink_14] 74.2096313729184
pressure[sink_15] 7.4427195861918761e+01
pressure[sink_16] 7.5229732087166127e+01
pressure[sink_17] 45.0588162845214
pressure[sink_18] 4.5812807014613455e+01
pressure[sink_19] 78.9857569925206
pressure[sink_20] 4.5836619345716187e+01
pressure[sink_21] 1.9267170253461412e+00
pressure[sink_22] 4.2158422111293824e+01
pressure[sink_23] 80.1951631880814
pressure[sink_24] 2.1362509907948795e+00
pressure[sink_25] 7.4080567654050824e+01
pressure[sink_26] 5.7774376782948657e+01
pressure[sink_27] 80.3114488625291
pressure[sink_28] 7.7057176744329752e+01
pressure[sink_29] 7.7352459017946927e+01
interdiction[source_1,sink_3] 0
interdiction[innode_1,sink_16] 0
interdiction[innode_6,sink_13] 0
interdiction[sink_13,sink_14] 0
interdiction[sink_14,sink_10] 0
interdiction[sink_25,sink_26] 0
interdiction[sink_26,sink_9] 0
interdiction[sink_9,sink_18] 0
interdiction[sink_26,sink_4] 0
interdiction[sink_4,sink_20] 0
interdiction[sink_18,sink_6] 0
interdiction[sink_25,innode_8] 0
interdiction[sink_6,sink_7] 0
interdiction[sink_6,sink_22] 0
interdiction[sink_7,sink_24] 0
interdiction[sink_22,sink_1] 0
interdiction[sink_24,sink_21] 0
interdiction[sink_21,sink_12] 0
interdiction[sink_7,sink_5] 0
interdiction[sink_5,sink_17] 0
interdiction[sink_17,sink_4] 0
interdiction[sink_17,sink_8] 0
interdiction[sink_3,sink_23] 0
interdiction[sink_8,sink_20] 1
interdiction[sink_25,sink_20] 1
interdiction[sink_25,sink_15] 0
interdiction[sink_15,sink_29] 1
interdiction[sink_29,sink_28] 0
interdiction[sink_29,sink_2] 0
interdiction[sink_2,sink_15] 0
interdiction[sink_29,innode_7] 0
interdiction[innode_4,sink_19] 0
interdiction[sink_19,innode_3] 0
interdiction[innode_4,innode_5] 0
interdiction[sink_27,innode_5] 0
interdiction[sink_27,sink_19] 0
interdiction[sink_10,sink_11] 0
interdiction[sink_10,innode_2] 0
interdiction[sink_10,innode_3] 0
interdiction[innode_6,sink_25] 0
interdiction[sink_11,innode_1] 0
interdiction[sink_19,innode_2] 0
interdiction[source_3,innode_4] 0
interdiction[source_2,innode_7] 0
interdiction[sink_3,innode_8] 0
WCcheckFlow[source_1,sink_3] 39
WCcheckFlow[innode_1,sink_16] 1
WCcheckFlow[innode_6,sink_13] 13
WCcheckFlow[sink_13,sink_14] 12
WCcheckFlow[sink_14,sink_10] 11
WCcheckFlow[sink_25,sink_26] 15
WCcheckFlow[sink_26,sink_9] 12
WCcheckFlow[sink_9,sink_18] 11
WCcheckFlow[sink_26,sink_4] 2
WCcheckFlow[sink_4,sink_20] 1
WCcheckFlow[sink_18,sink_6] 10
WCcheckFlow[sink_25,innode_8] -36
WCcheckFlow[sink_6,sink_7] 7
WCcheckFlow[sink_6,sink_22] 2
WCcheckFlow[sink_7,sink_24] 3
WCcheckFlow[sink_22,sink_1] 1
WCcheckFlow[sink_24,sink_21] 2
WCcheckFlow[sink_21,sink_12] 1
WCcheckFlow[sink_7,sink_5] 3
WCcheckFlow[sink_5,sink_17] 2
WCcheckFlow[sink_17,sink_4] 0
WCcheckFlow[sink_17,sink_8] 1
WCcheckFlow[sink_3,sink_23] 1
WCcheckFlow[sink_8,sink_20] 0
WCcheckFlow[sink_25,sink_20] 0
WCcheckFlow[sink_25,sink_15] 6
WCcheckFlow[sink_15,sink_29] 0
WCcheckFlow[sink_29,sink_28] 1
WCcheckFlow[sink_29,sink_2] -4
WCcheckFlow[sink_2,sink_15] -5
WCcheckFlow[sink_29,innode_7] 2
WCcheckFlow[innode_4,sink_19] -4
WCcheckFlow[sink_19,innode_3] -5
WCcheckFlow[innode_4,innode_5] 2
WCcheckFlow[sink_27,innode_5] -1
WCcheckFlow[sink_27,sink_19] 0
WCcheckFlow[sink_10,sink_11] 3
WCcheckFlow[sink_10,innode_2] 1
WCcheckFlow[sink_10,innode_3] 6
WCcheckFlow[innode_6,sink_25] -14
WCcheckFlow[sink_11,innode_1] 2
WCcheckFlow[sink_19,innode_2] 0
WCcheckFlow[source_3,innode_4] -1
WCcheckFlow[source_2,innode_7] -1
WCcheckFlow[sink_3,innode_8] 37
